#/atom 1 silicon
#/atom 2 aluminium
#/atom 3 oxygen
#/atom 4 hydrogen
#/bond 2 3 3.5
#/bond 1 3 3.5
#/bond 1 2 2.6
#/bond 3 4 2.0
log none
units real
atom_style charge

read_data CHA_wAl.data
replicate 2 2 2

pair_style reax/c NULL 
pair_coeff * * ffield_Psofogiannakis_CuOH_2015 Si Al O H
fix qeq all qeq/reax 1 0.0 10.0 1e-4 reax/c

timestep 0.25

fix nvt all nvt temp 700 700 100.0
velocity all create 1000.0 4928459 rot yes mom yes dist gaussian
