#package omp 8
#suffix omp
units		metal
boundary	p p p

atom_style	molecular

read_restart multiplewater.bin

pair_style 	vashishta
pair_coeff	* * ../../potentialparameters/H2O.vashishta O H
mass            1 15.9994
mass            2 1.00794

neighbor	0.3 bin
neigh_modify	delay 5 check yes

fix nvt all nvt temp 300 300 1.0
timestep	0.00025

thermo_style custom step time atoms density temp etotal 
thermo 1000
#/atom 1 oxygen
#/atom 2 hydrogen
