# USC (Anders Hafreager, UiO)
# using metal units: http://lammps.sandia.gov/doc/units.html
#package omp 8
#suffix omp

units		metal
atom_style	atomic

read_restart 3_quenched.bin

pair_style	vashishta
pair_coeff	* * ../../potentialparameters/SiO2.vashishta Si O
mass            1 28.08
mass            2 15.9994

neighbor 0.3 bin
neigh_modify delay 5

timestep	0.002
thermo_style custom step time temp etotal atoms cpuremain 
thermo 100

fix nvt all nvt temp 300 300 0.5
#/atom 1 silicon
#/atom 2 oxygen
#/bond 1 2 2.6
