# USC (Anders Hafreager, UiO)
# using metal units: http://lammps.sandia.gov/doc/units.html
units		metal
atom_style	atomic
#atom_style	molecular

read_data 3_quenched.data

pair_style	vashishta
pair_coeff	* * ../../potentialparameters/SiO2.vashishta Si O
mass            1 28.08
mass            2 15.9994

neighbor 0.3 bin
neigh_modify delay 1 every 1

timestep	0.002
thermo_style custom step time temp etotal atoms cpuremain 
thermo 100

#fix nve all nve
#fix nvt all nvt temp 2000 2000 0.5
fix nvt all nvt temp 300 300 0.5
#/atom 1 silicon
#/atom 2 oxygen
