variable Nsteps equal 50000
variable Neq   equal  100000
variable Nevery equal 10000
variable Na equal 10     		#loop a
variable T equal 400.00  		#temperature [K]
variable Rc equal 10.0   		#cut-off [A]
clear

units           real
dimension       3
boundary        p p p
atom_style      molecular

read_data   ext://reconfig.data  #single molecule description
replicate  4 4 4

include     ext://C2H4ff.set  #force field file

timestep 1.0

fix SHAKE mobile shake 0.0001 10 0 b 1

fix NVT all nvt temp ${T} ${T} 100

dump PRINTdump  all  custom ${Nsteps} dump.lmptrj id mol type x y z
dump_modify PRINTdump sort id

thermo_style custom step temp
thermo ${Nevery}
run ${Neq}

variable Nm equal count(mobile)/2

reset_timestep 0
thermo_style  custom step temp
thermo ${Nevery}
dump PRINTdump  all  custom ${Nsteps} dump.lmptrj id mol type x y z
dump_modify PRINTdump sort id
dump PRINTdump2  mobile  custom 2 vel.$a.lammpstrj id mol type x y z vx vy vz
dump_modify PRINTdump2 sort id
run  ${Nsteps}
write_data restart.data
undump PRINTdump
undump PRINTdump2
