#/atom 1 silicon
#/atom 2 carbon
#/bond 1 2 2.9
log none
units		metal
boundary	p p p

atom_style	atomic

read_data	faceted_cylinder.data

pair_style vashishta/table 5000 2.0
pair_coeff * * SiC.vashishta Si C

velocity	all create 500.0 277387 mom yes

fix nvt all nvt temp 500 500 1.0
timestep	0.002
