    pair_coeff 1 1 lj/cut/coul/long 0.061 2.94
    pair_coeff 2 2 lj/cut/coul/long 0.118 3.905
    pair_coeff 3 3 lj/cut/coul/long 0.105 3.75
    pair_coeff 4 4 lj/cut/coul/long 0.21 2.96
    pair_coeff 5 5 lj/cut/coul/long 0.17 3.0
    pair_coeff 6 6 lj/cut/coul/long 0.16 3.91
    pair_coeff 7 7 lj/cut/coul/long 0.0 0.0
    pair_coeff 8 8 lj/cut/coul/long 0.294 3.73
    pair_coeff 9 9 lj/cut/coul/long 0.207 3.775
    pair_coeff 10 10 lj/cut/coul/long 0.175 3.905
    pair_coeff 11 11 lj/cut/coul/long 0.16 3.91
    pair_coeff 12 12 lj/cut/coul/long 0.145 3.96
    pair_coeff 13 13 lj/cut/coul/long 0.118 3.905
    pair_coeff 14 14 lj/cut/coul/long 0.14 3.85
    pair_coeff 15 15 lj/cut/coul/long 0.08 3.85
    pair_coeff 16 16 lj/cut/coul/long 0.115 3.8
    pair_coeff 17 17 lj/cut/coul/long 0.11 3.75
    pair_coeff 18 18 lj/cut/coul/long 0.05 3.8
    pair_coeff 19 19 lj/cut/coul/long 0.105 3.75
    pair_coeff 20 20 lj/cut/coul/long 0.17 3.07
    pair_coeff 21 21 lj/cut/coul/long 0.0 0.0
    pair_coeff 22 22 lj/cut/coul/long 0.207 3.775
    pair_coeff 23 23 lj/cut/coul/long 0.118 3.905
    pair_coeff 24 24 lj/cut/coul/long 0.25 3.7
    pair_coeff 25 25 lj/cut/coul/long 0.25 3.55
    pair_coeff 26 26 lj/cut/coul/long 0.25 3.55
    pair_coeff 27 27 lj/cut/coul/long 0.25 3.55
    pair_coeff 28 28 lj/cut/coul/long 0.0 0.0
    pair_coeff 29 29 lj/cut/coul/long 0.0 0.0
    pair_coeff 30 30 lj/cut/coul/long 0.207 3.775
    pair_coeff 31 31 lj/cut/coul/long 0.118 3.905
    pair_coeff 32 32 lj/cut/coul/long 0.17 3.8
    pair_coeff 33 33 lj/cut/coul/long 0.118 3.8
    pair_coeff 34 34 lj/cut/coul/long 0.17 3.8
    pair_coeff 35 35 lj/cut/coul/long 0.118 3.8
    pair_coeff 36 36 lj/cut/coul/long 0.17 3.2
    pair_coeff 37 37 lj/cut/coul/long 0.15 3.65
    pair_coeff 38 38 lj/cut/coul/long 0.207 3.775
    pair_coeff 39 39 lj/cut/coul/long 0.08 3.85
    pair_coeff 40 40 lj/cut/coul/long 0.05 3.8
    pair_coeff 41 41 lj/cut/coul/long 0.17 3.0
    pair_coeff 42 42 lj/cut/coul/long 0.17 3.8
    pair_coeff 43 43 lj/cut/coul/long 0.118 3.8
    pair_coeff 44 44 lj/cut/coul/long 0.118 3.8
    pair_coeff 45 45 lj/cut/coul/long 0.3 3.4
    pair_coeff 46 46 lj/cut/coul/long 0.08 3.8
    pair_coeff 47 47 lj/cut/coul/long 0.3 3.47
    pair_coeff 48 48 lj/cut/coul/long 0.05 3.8
    pair_coeff 49 49 lj/cut/coul/long 0.266 3.47
    pair_coeff 50 50 lj/cut/coul/long 0.395 3.56
    pair_coeff 51 51 lj/cut/coul/long 0.28 2.93
    pair_coeff 52 52 lj/cut/coul/long 0.16 3.81
    pair_coeff 53 53 lj/cut/coul/long 0.21 2.96
    pair_coeff 54 54 lj/cut/coul/long 0.17 3.25
    pair_coeff 55 55 lj/cut/coul/long 0.115 3.8
    pair_coeff 56 56 lj/cut/coul/long 0.17 3.8
    pair_coeff 57 57 lj/cut/coul/long 0.0 0.0
    pair_coeff 58 58 lj/cut/coul/long 0.02 2.556
    pair_coeff 59 59 lj/cut/coul/long 0.069 2.78
    pair_coeff 60 60 lj/cut/coul/long 0.2339 3.401
    pair_coeff 61 61 lj/cut/coul/long 0.317 3.624
    pair_coeff 62 62 lj/cut/coul/long 0.433 3.935
    pair_coeff 63 63 lj/cut/coul/long 0.1521 3.15061
    pair_coeff 64 64 lj/cut/coul/long 0.0 0.0
    pair_coeff 65 65 lj/cut/coul/long 0.155 3.15365
    pair_coeff 66 66 lj/cut/coul/long 0.0 0.0
    pair_coeff 67 67 lj/cut/coul/long 0.0 0.0
    pair_coeff 68 68 lj/cut/coul/long 0.15 3.176
    pair_coeff 69 69 lj/cut/coul/long 0.0 0.0
    pair_coeff 70 70 lj/cut/coul/long 0.1 3.27
    pair_coeff 71 71 lj/cut/coul/long 0.0 0.0
    pair_coeff 72 72 lj/cut/coul/long 0.0 0.0
    pair_coeff 73 73 lj/cut/coul/long 0.16 3.12
    pair_coeff 74 74 lj/cut/coul/long 0.0 0.0
    pair_coeff 75 75 lj/cut/coul/long 0.0 0.0
    pair_coeff 76 76 lj/cut/coul/long 0.1554 3.16557
    pair_coeff 77 77 lj/cut/coul/long 0.0 0.0
    pair_coeff 78 78 lj/cut/coul/long 0.17 3.42
    pair_coeff 79 79 lj/cut/coul/long 0.0 0.0
    pair_coeff 80 80 lj/cut/coul/long 0.066 3.5
    pair_coeff 81 81 lj/cut/coul/long 0.066 3.5
    pair_coeff 82 82 lj/cut/coul/long 0.066 3.5
    pair_coeff 83 83 lj/cut/coul/long 0.066 3.5
    pair_coeff 84 84 lj/cut/coul/long 0.066 3.5
    pair_coeff 85 85 lj/cut/coul/long 0.03 2.5
    pair_coeff 86 86 lj/cut/coul/long 0.076 3.55
    pair_coeff 87 87 lj/cut/coul/long 0.076 3.55
    pair_coeff 88 88 lj/cut/coul/long 0.076 3.55
    pair_coeff 89 89 lj/cut/coul/long 0.03 2.42
    pair_coeff 90 90 lj/cut/coul/long 0.07 3.55
    pair_coeff 91 91 lj/cut/coul/long 0.03 2.42
    pair_coeff 92 92 lj/cut/coul/long 0.07 3.55
    pair_coeff 93 93 lj/cut/coul/long 0.066 3.5
    pair_coeff 94 94 lj/cut/coul/long 0.066 3.5
    pair_coeff 95 95 lj/cut/coul/long 0.076 3.55
    pair_coeff 96 96 lj/cut/coul/long 0.17 3.12
    pair_coeff 97 97 lj/cut/coul/long 0.0 0.0
    pair_coeff 98 98 lj/cut/coul/long 0.03 2.5
    pair_coeff 99 99 lj/cut/coul/long 0.066 3.5
    pair_coeff 100 100 lj/cut/coul/long 0.066 3.5
    pair_coeff 101 101 lj/cut/coul/long 0.066 3.5
    pair_coeff 102 102 lj/cut/coul/long 0.066 3.5
    pair_coeff 103 103 lj/cut/coul/long 0.062 3.25
    pair_coeff 104 104 lj/cut/coul/long 0.17 3.07
    pair_coeff 105 105 lj/cut/coul/long 0.0 0.0
    pair_coeff 106 106 lj/cut/coul/long 0.061 2.94
    pair_coeff 107 107 lj/cut/coul/long 0.03 2.5
    pair_coeff 108 108 lj/cut/coul/long 0.07 3.55
    pair_coeff 109 109 lj/cut/coul/long 0.17 3.07
    pair_coeff 110 110 lj/cut/coul/long 0.0 0.0
    pair_coeff 111 111 lj/cut/coul/long 0.17 3.07
    pair_coeff 112 112 lj/cut/coul/long 0.0 0.0
    pair_coeff 113 113 lj/cut/coul/long 0.17 3.07
    pair_coeff 114 114 lj/cut/coul/long 0.0 0.0
    pair_coeff 115 115 lj/cut/coul/long 0.066 3.5
    pair_coeff 116 116 lj/cut/coul/long 0.066 3.5
    pair_coeff 117 117 lj/cut/coul/long 0.066 3.5
    pair_coeff 118 118 lj/cut/coul/long 0.03 2.5
    pair_coeff 119 119 lj/cut/coul/long 0.14 2.9
    pair_coeff 120 120 lj/cut/coul/long 0.076 3.55
    pair_coeff 121 121 lj/cut/coul/long 0.14 2.9
    pair_coeff 122 122 lj/cut/coul/long 0.14 2.9
    pair_coeff 123 123 lj/cut/coul/long 0.066 3.5
    pair_coeff 124 124 lj/cut/coul/long 0.066 3.5
    pair_coeff 125 125 lj/cut/coul/long 0.066 3.5
    pair_coeff 126 126 lj/cut/coul/long 0.066 3.5
    pair_coeff 127 127 lj/cut/coul/long 0.03 2.5
    pair_coeff 128 128 lj/cut/coul/long 0.14 2.9
    pair_coeff 129 129 lj/cut/coul/long 0.17 3.07
    pair_coeff 130 130 lj/cut/coul/long 0.0 0.0
    pair_coeff 131 131 lj/cut/coul/long 0.066 3.5
    pair_coeff 132 132 lj/cut/coul/long 0.03 2.5
    pair_coeff 133 133 lj/cut/coul/long 0.066 3.5
    pair_coeff 134 134 lj/cut/coul/long 0.03 2.5
    pair_coeff 135 135 lj/cut/coul/long 0.066 3.5
    pair_coeff 136 136 lj/cut/coul/long 0.03 2.5
    pair_coeff 137 137 lj/cut/coul/long 0.066 3.5
    pair_coeff 138 138 lj/cut/coul/long 0.03 2.5
    pair_coeff 139 139 lj/cut/coul/long 0.066 3.5
    pair_coeff 140 140 lj/cut/coul/long 0.066 3.5
    pair_coeff 141 141 lj/cut/coul/long 0.07 3.55
    pair_coeff 142 142 lj/cut/coul/long 0.25 3.55
    pair_coeff 143 143 lj/cut/coul/long 0.25 3.7
    pair_coeff 144 144 lj/cut/coul/long 0.25 3.55
    pair_coeff 145 145 lj/cut/coul/long 0.25 3.55
    pair_coeff 146 146 lj/cut/coul/long 0.0 0.0
    pair_coeff 147 147 lj/cut/coul/long 0.0 0.0
    pair_coeff 148 148 lj/cut/coul/long 0.066 3.5
    pair_coeff 149 149 lj/cut/coul/long 0.066 3.5
    pair_coeff 150 150 lj/cut/coul/long 0.066 3.5
    pair_coeff 151 151 lj/cut/coul/long 0.066 3.5
    pair_coeff 152 152 lj/cut/coul/long 0.066 3.5
    pair_coeff 153 153 lj/cut/coul/long 0.066 3.5
    pair_coeff 154 154 lj/cut/coul/long 0.066 3.5
    pair_coeff 155 155 lj/cut/coul/long 0.066 3.5
    pair_coeff 156 156 lj/cut/coul/long 0.066 3.5
    pair_coeff 157 157 lj/cut/coul/long 0.066 3.5
    pair_coeff 158 158 lj/cut/coul/long 0.066 3.5
    pair_coeff 159 159 lj/cut/coul/long 0.066 3.5
    pair_coeff 160 160 lj/cut/coul/long 0.066 3.5
    pair_coeff 161 161 lj/cut/coul/long 0.066 3.5
    pair_coeff 162 162 lj/cut/coul/long 0.066 3.5
    pair_coeff 163 163 lj/cut/coul/long 0.07 3.55
    pair_coeff 164 164 lj/cut/coul/long 0.25 3.55
    pair_coeff 165 165 lj/cut/coul/long 0.066 3.5
    pair_coeff 166 166 lj/cut/coul/long 0.066 3.5
    pair_coeff 167 167 lj/cut/coul/long 0.066 3.5
    pair_coeff 168 168 lj/cut/coul/long 0.3 3.4
    pair_coeff 169 169 lj/cut/coul/long 0.076 3.55
    pair_coeff 170 170 lj/cut/coul/long 0.07 3.55
    pair_coeff 171 171 lj/cut/coul/long 0.066 3.5
    pair_coeff 172 172 lj/cut/coul/long 0.066 3.5
    pair_coeff 173 173 lj/cut/coul/long 0.105 3.75
    pair_coeff 174 174 lj/cut/coul/long 0.105 3.75
    pair_coeff 175 175 lj/cut/coul/long 0.105 3.75
    pair_coeff 176 176 lj/cut/coul/long 0.105 3.75
    pair_coeff 177 177 lj/cut/coul/long 0.105 3.75
    pair_coeff 178 178 lj/cut/coul/long 0.21 2.96
    pair_coeff 179 179 lj/cut/coul/long 0.17 3.25
    pair_coeff 180 180 lj/cut/coul/long 0.17 3.25
    pair_coeff 181 181 lj/cut/coul/long 0.17 3.25
    pair_coeff 182 182 lj/cut/coul/long 0.0 0.0
    pair_coeff 183 183 lj/cut/coul/long 0.0 0.0
    pair_coeff 184 184 lj/cut/coul/long 0.066 3.5
    pair_coeff 185 185 lj/cut/coul/long 0.066 3.5
    pair_coeff 186 186 lj/cut/coul/long 0.066 3.5
    pair_coeff 187 187 lj/cut/coul/long 0.066 3.5
    pair_coeff 188 188 lj/cut/coul/long 0.066 3.5
    pair_coeff 189 189 lj/cut/coul/long 0.105 3.75
    pair_coeff 190 190 lj/cut/coul/long 0.21 2.96
    pair_coeff 191 191 lj/cut/coul/long 0.17 3.25
    pair_coeff 192 192 lj/cut/coul/long 0.0 0.0
    pair_coeff 193 193 lj/cut/coul/long 0.17 3.25
    pair_coeff 194 194 lj/cut/coul/long 0.105 3.75
    pair_coeff 195 195 lj/cut/coul/long 0.21 2.96
    pair_coeff 196 196 lj/cut/coul/long 0.0 0.0
    pair_coeff 197 197 lj/cut/coul/long 0.02 2.5
    pair_coeff 198 198 lj/cut/coul/long 0.066 3.5
    pair_coeff 199 199 lj/cut/coul/long 0.066 3.5
    pair_coeff 200 200 lj/cut/coul/long 0.066 3.5
    pair_coeff 201 201 lj/cut/coul/long 0.066 3.5
    pair_coeff 202 202 lj/cut/coul/long 0.07 3.55
    pair_coeff 203 203 lj/cut/coul/long 0.15 3.65
    pair_coeff 204 204 lj/cut/coul/long 0.17 3.2
    pair_coeff 205 205 lj/cut/coul/long 0.07 3.55
    pair_coeff 206 206 lj/cut/coul/long 0.3 3.4
    pair_coeff 207 207 lj/cut/coul/long 0.17 3.25
    pair_coeff 208 208 lj/cut/coul/long 0.07 3.55
    pair_coeff 209 209 lj/cut/coul/long 0.105 3.75
    pair_coeff 210 210 lj/cut/coul/long 0.21 2.96
    pair_coeff 211 211 lj/cut/coul/long 0.17 3.0
    pair_coeff 212 212 lj/cut/coul/long 0.0 0.0
    pair_coeff 213 213 lj/cut/coul/long 0.105 3.75
    pair_coeff 214 214 lj/cut/coul/long 0.21 2.96
    pair_coeff 215 215 lj/cut/coul/long 0.066 3.5
    pair_coeff 216 216 lj/cut/coul/long 0.066 3.5
    pair_coeff 217 217 lj/cut/coul/long 0.066 3.5
    pair_coeff 218 218 lj/cut/coul/long 0.066 3.5
    pair_coeff 219 219 lj/cut/coul/long 0.105 3.75
    pair_coeff 220 220 lj/cut/coul/long 0.21 2.96
    pair_coeff 221 221 lj/cut/coul/long 0.015 2.42
    pair_coeff 222 222 lj/cut/coul/long 0.105 3.75
    pair_coeff 223 223 lj/cut/coul/long 0.21 2.96
    pair_coeff 224 224 lj/cut/coul/long 0.015 2.42
    pair_coeff 225 225 lj/cut/coul/long 0.066 3.5
    pair_coeff 226 226 lj/cut/coul/long 0.066 3.5
    pair_coeff 227 227 lj/cut/coul/long 0.066 3.5
    pair_coeff 228 228 lj/cut/coul/long 0.066 3.5
    pair_coeff 229 229 lj/cut/coul/long 0.17 3.25
    pair_coeff 230 230 lj/cut/coul/long 0.17 3.25
    pair_coeff 231 231 lj/cut/coul/long 0.17 3.25
    pair_coeff 232 232 lj/cut/coul/long 0.0 0.0
    pair_coeff 233 233 lj/cut/coul/long 0.0 0.0
    pair_coeff 234 234 lj/cut/coul/long 0.066 3.5
    pair_coeff 235 235 lj/cut/coul/long 0.066 3.5
    pair_coeff 236 236 lj/cut/coul/long 0.066 3.5
    pair_coeff 237 237 lj/cut/coul/long 0.066 3.5
    pair_coeff 238 238 lj/cut/coul/long 0.066 3.5
    pair_coeff 239 239 lj/cut/coul/long 0.066 3.5
    pair_coeff 240 240 lj/cut/coul/long 0.066 3.5
    pair_coeff 241 241 lj/cut/coul/long 0.066 3.5
    pair_coeff 242 242 lj/cut/coul/long 0.066 3.5
    pair_coeff 243 243 lj/cut/coul/long 0.17 3.25
    pair_coeff 244 244 lj/cut/coul/long 0.0 0.0
    pair_coeff 245 245 lj/cut/coul/long 0.05 3.55
    pair_coeff 246 246 lj/cut/coul/long 0.17 3.25
    pair_coeff 247 247 lj/cut/coul/long 0.0 0.0
    pair_coeff 248 248 lj/cut/coul/long 0.066 3.5
    pair_coeff 249 249 lj/cut/coul/long 0.066 3.5
    pair_coeff 250 250 lj/cut/coul/long 0.066 3.5
    pair_coeff 251 251 lj/cut/coul/long 0.066 3.5
    pair_coeff 252 252 lj/cut/coul/long 0.17 3.25
    pair_coeff 253 253 lj/cut/coul/long 0.0 0.0
    pair_coeff 254 254 lj/cut/coul/long 0.17 3.25
    pair_coeff 255 255 lj/cut/coul/long 0.08 3.5
    pair_coeff 256 256 lj/cut/coul/long 0.17 3.25
    pair_coeff 257 257 lj/cut/coul/long 0.0 0.0
    pair_coeff 258 258 lj/cut/coul/long 0.08 3.5
    pair_coeff 259 259 lj/cut/coul/long 0.05 2.5
    pair_coeff 260 260 lj/cut/coul/long 0.08 3.5
    pair_coeff 261 261 lj/cut/coul/long 0.05 2.5
    pair_coeff 262 262 lj/cut/coul/long 0.17 3.25
    pair_coeff 263 263 lj/cut/coul/long 0.105 3.75
    pair_coeff 264 264 lj/cut/coul/long 0.17 3.25
    pair_coeff 265 265 lj/cut/coul/long 0.105 3.75
    pair_coeff 266 266 lj/cut/coul/long 0.08 3.5
    pair_coeff 267 267 lj/cut/coul/long 0.08 3.5
    pair_coeff 268 268 lj/cut/coul/long 0.0 0.0
    pair_coeff 269 269 lj/cut/coul/long 0.21 2.96
    pair_coeff 270 270 lj/cut/coul/long 0.0 0.0
    pair_coeff 271 271 lj/cut/coul/long 0.21 2.96
    pair_coeff 272 272 lj/cut/coul/long 0.05 2.5
    pair_coeff 273 273 lj/cut/coul/long 0.05 2.5
    pair_coeff 274 274 lj/cut/coul/long 0.08 3.5
    pair_coeff 275 275 lj/cut/coul/long 0.05 2.5
    pair_coeff 276 276 lj/cut/coul/long 0.17 3.25
    pair_coeff 277 277 lj/cut/coul/long 0.105 3.75
    pair_coeff 278 278 lj/cut/coul/long 0.17 3.25
    pair_coeff 279 279 lj/cut/coul/long 0.08 3.5
    pair_coeff 280 280 lj/cut/coul/long 0.08 3.5
    pair_coeff 281 281 lj/cut/coul/long 0.08 3.5
    pair_coeff 282 282 lj/cut/coul/long 0.0 0.0
    pair_coeff 283 283 lj/cut/coul/long 0.21 2.96
    pair_coeff 284 284 lj/cut/coul/long 0.17 3.25
    pair_coeff 285 285 lj/cut/coul/long 0.0 0.0
    pair_coeff 286 286 lj/cut/coul/long 0.0 0.0
    pair_coeff 287 287 lj/cut/coul/long 0.05 2.5
    pair_coeff 288 288 lj/cut/coul/long 0.05 2.5
    pair_coeff 289 289 lj/cut/coul/long 0.17 3.25
    pair_coeff 290 290 lj/cut/coul/long 0.08 3.5
    pair_coeff 291 291 lj/cut/coul/long 0.17 3.25
    pair_coeff 292 292 lj/cut/coul/long 0.08 3.5
    pair_coeff 293 293 lj/cut/coul/long 0.08 3.5
    pair_coeff 294 294 lj/cut/coul/long 0.08 3.5
    pair_coeff 295 295 lj/cut/coul/long 0.17 3.25
    pair_coeff 296 296 lj/cut/coul/long 0.08 3.5
    pair_coeff 297 297 lj/cut/coul/long 0.17 3.25
    pair_coeff 298 298 lj/cut/coul/long 0.05 2.5
    pair_coeff 299 299 lj/cut/coul/long 0.17 3.25
    pair_coeff 300 300 lj/cut/coul/long 0.0 0.0
    pair_coeff 301 301 lj/cut/coul/long 0.0 0.0
    pair_coeff 302 302 lj/cut/coul/long 0.05 2.5
    pair_coeff 303 303 lj/cut/coul/long 0.0 0.0
    pair_coeff 304 304 lj/cut/coul/long 0.17 3.25
    pair_coeff 305 305 lj/cut/coul/long 0.08 3.5
    pair_coeff 306 306 lj/cut/coul/long 0.17 3.25
    pair_coeff 307 307 lj/cut/coul/long 0.08 3.5
    pair_coeff 308 308 lj/cut/coul/long 0.08 3.5
    pair_coeff 309 309 lj/cut/coul/long 0.105 3.75
    pair_coeff 310 310 lj/cut/coul/long 0.0 0.0
    pair_coeff 311 311 lj/cut/coul/long 0.17 3.25
    pair_coeff 312 312 lj/cut/coul/long 0.0 0.0
    pair_coeff 313 313 lj/cut/coul/long 0.21 2.96
    pair_coeff 314 314 lj/cut/coul/long 0.08 3.5
    pair_coeff 315 315 lj/cut/coul/long 0.05 2.5
    pair_coeff 316 316 lj/cut/coul/long 0.08 3.5
    pair_coeff 317 317 lj/cut/coul/long 0.05 2.5
    pair_coeff 318 318 lj/cut/coul/long 0.08 3.5
    pair_coeff 319 319 lj/cut/coul/long 0.05 2.5
    pair_coeff 320 320 lj/cut/coul/long 0.17 3.25
    pair_coeff 321 321 lj/cut/coul/long 0.105 3.75
    pair_coeff 322 322 lj/cut/coul/long 0.17 3.25
    pair_coeff 323 323 lj/cut/coul/long 0.08 3.5
    pair_coeff 324 324 lj/cut/coul/long 0.08 3.5
    pair_coeff 325 325 lj/cut/coul/long 0.08 3.5
    pair_coeff 326 326 lj/cut/coul/long 0.0 0.0
    pair_coeff 327 327 lj/cut/coul/long 0.21 2.96
    pair_coeff 328 328 lj/cut/coul/long 0.0 0.0
    pair_coeff 329 329 lj/cut/coul/long 0.17 3.25
    pair_coeff 330 330 lj/cut/coul/long 0.0 0.0
    pair_coeff 331 331 lj/cut/coul/long 0.0 0.0
    pair_coeff 332 332 lj/cut/coul/long 0.05 2.5
    pair_coeff 333 333 lj/cut/coul/long 0.05 2.5
    pair_coeff 334 334 lj/cut/coul/long 0.08 3.5
    pair_coeff 335 335 lj/cut/coul/long 0.05 2.5
    pair_coeff 336 336 lj/cut/coul/long 0.2 3.74
    pair_coeff 337 337 lj/cut/coul/long 0.21 2.96
    pair_coeff 338 338 lj/cut/coul/long 0.17 3.0
    pair_coeff 339 339 lj/cut/coul/long 0.066 3.55
    pair_coeff 340 340 lj/cut/coul/long 0.08 3.5
    pair_coeff 341 341 lj/cut/coul/long 0.3 3.4
    pair_coeff 342 342 lj/cut/coul/long 0.076 3.55
    pair_coeff 343 343 lj/cut/coul/long 0.71 3.05
    pair_coeff 344 344 lj/cut/coul/long 0.71 4.02
    pair_coeff 345 345 lj/cut/coul/long 0.71 4.28
    pair_coeff 346 346 lj/cut/coul/long 0.71 4.81
    pair_coeff 347 347 lj/cut/coul/long 0.0005 5.34
    pair_coeff 348 348 lj/cut/coul/long 0.0005 2.87
    pair_coeff 349 349 lj/cut/coul/long 0.0005 4.07
    pair_coeff 350 350 lj/cut/coul/long 0.0005 5.17
    pair_coeff 351 351 lj/cut/coul/long 0.0005 5.6
    pair_coeff 352 352 lj/cut/coul/long 0.0005 6.2
    pair_coeff 353 353 lj/cut/coul/long 0.875044 1.644471
    pair_coeff 354 354 lj/cut/coul/long 0.449657 2.412031
    pair_coeff 355 355 lj/cut/coul/long 0.118226 3.102688
    pair_coeff 356 356 lj/cut/coul/long 0.047096 3.81661
    pair_coeff 357 357 lj/cut/coul/long 0.3 4.2
    pair_coeff 358 358 lj/cut/coul/long 0.05 2.5
    pair_coeff 359 359 lj/cut/coul/long 0.5 4.25
    pair_coeff 360 360 lj/cut/coul/long 0.3 4.2
    pair_coeff 361 361 lj/cut/coul/long 0.05 2.5
    pair_coeff 362 362 lj/cut/coul/long 0.25 3.15
    pair_coeff 363 363 lj/cut/coul/long 0.3 4.2
    pair_coeff 364 364 lj/cut/coul/long 0.05 2.5
    pair_coeff 365 365 lj/cut/coul/long 0.15 3.65
    pair_coeff 366 366 lj/cut/coul/long 0.25 3.4
    pair_coeff 367 367 lj/cut/coul/long 0.3 4.2
    pair_coeff 368 368 lj/cut/coul/long 0.05 2.5
    pair_coeff 369 369 lj/cut/coul/long 0.25 3.4
    pair_coeff 370 370 lj/cut/coul/long 0.05 2.5
    pair_coeff 371 371 lj/cut/coul/long 0.3 4.2
    pair_coeff 372 372 lj/cut/coul/long 0.05 2.5
    pair_coeff 373 373 lj/cut/coul/long 0.3 4.2
    pair_coeff 374 374 lj/cut/coul/long 0.05 2.5
    pair_coeff 375 375 lj/cut/coul/long 0.0 0.0
    pair_coeff 376 376 lj/cut/coul/long 0.25 3.2
    pair_coeff 377 377 lj/cut/coul/long 0.0 0.0
    pair_coeff 378 378 lj/cut/coul/long 0.4 2.81524
    pair_coeff 379 379 lj/cut/coul/long 0.2 3.11815
    pair_coeff 380 380 lj/cut/coul/long 0.14 2.9
    pair_coeff 381 381 lj/cut/coul/long 0.2 3.74
    pair_coeff 382 382 lj/cut/coul/long 0.2 3.15
    pair_coeff 383 383 lj/cut/coul/long 0.14 2.9
    pair_coeff 384 384 lj/cut/coul/long 0.066 3.5
    pair_coeff 385 385 lj/cut/coul/long 0.03 2.5
    pair_coeff 386 386 lj/cut/coul/long 0.2 3.74
    pair_coeff 387 387 lj/cut/coul/long 0.2 3.15
    pair_coeff 388 388 lj/cut/coul/long 0.14 2.9
    pair_coeff 389 389 lj/cut/coul/long 0.066 3.5
    pair_coeff 390 390 lj/cut/coul/long 0.03 2.5
    pair_coeff 391 391 lj/cut/coul/long 0.2 3.74
    pair_coeff 392 392 lj/cut/coul/long 0.2 3.15
    pair_coeff 393 393 lj/cut/coul/long 0.14 2.9
    pair_coeff 394 394 lj/cut/coul/long 0.066 3.5
    pair_coeff 395 395 lj/cut/coul/long 0.03 2.5
    pair_coeff 396 396 lj/cut/coul/long 0.066 3.5
    pair_coeff 397 397 lj/cut/coul/long 0.03 2.5
    pair_coeff 398 398 lj/cut/coul/long 0.07 3.55
    pair_coeff 399 399 lj/cut/coul/long 0.066 3.5
    pair_coeff 400 400 lj/cut/coul/long 0.03 2.5
    pair_coeff 401 401 lj/cut/coul/long 0.07 3.55
    pair_coeff 402 402 lj/cut/coul/long 0.066 3.5
    pair_coeff 403 403 lj/cut/coul/long 0.03 2.5
    pair_coeff 404 404 lj/cut/coul/long 0.07 3.55
    pair_coeff 405 405 lj/cut/coul/long 0.066 3.5
    pair_coeff 406 406 lj/cut/coul/long 0.105 3.75
    pair_coeff 407 407 lj/cut/coul/long 0.21 2.96
    pair_coeff 408 408 lj/cut/coul/long 0.17 3.0
    pair_coeff 409 409 lj/cut/coul/long 0.066 3.5
    pair_coeff 410 410 lj/cut/coul/long 0.015 2.42
    pair_coeff 411 411 lj/cut/coul/long 0.105 3.75
    pair_coeff 412 412 lj/cut/coul/long 0.105 3.75
    pair_coeff 413 413 lj/cut/coul/long 0.07 3.55
    pair_coeff 414 414 lj/cut/coul/long 0.17 3.0
    pair_coeff 415 415 lj/cut/coul/long 0.25 3.55
    pair_coeff 416 416 lj/cut/coul/long 0.17 2.96
    pair_coeff 417 417 lj/cut/coul/long 0.066 3.5
    pair_coeff 418 418 lj/cut/coul/long 0.03 2.5
    pair_coeff 419 419 lj/cut/coul/long 0.17 3.25
    pair_coeff 420 420 lj/cut/coul/long 0.0 0.0
    pair_coeff 421 421 lj/cut/coul/long 0.17 3.25
    pair_coeff 422 422 lj/cut/coul/long 0.0 0.0
    pair_coeff 423 423 lj/cut/coul/long 0.066 3.5
    pair_coeff 424 424 lj/cut/coul/long 0.03 2.5
    pair_coeff 425 425 lj/cut/coul/long 0.066 3.5
    pair_coeff 426 426 lj/cut/coul/long 0.03 2.5
    pair_coeff 427 427 lj/cut/coul/long 0.066 3.5
    pair_coeff 428 428 lj/cut/coul/long 0.03 2.5
    pair_coeff 429 429 lj/cut/coul/long 0.07 3.55
    pair_coeff 430 430 lj/cut/coul/long 0.07 3.55
    pair_coeff 431 431 lj/cut/coul/long 0.066 3.5
    pair_coeff 432 432 lj/cut/coul/long 0.066 3.5
    pair_coeff 433 433 lj/cut/coul/long 0.066 3.5
    pair_coeff 434 434 lj/cut/coul/long 0.25 3.55
    pair_coeff 435 435 lj/cut/coul/long 0.17 2.96
    pair_coeff 436 436 lj/cut/coul/long 0.395 3.56
    pair_coeff 437 437 lj/cut/coul/long 0.395 3.56
    pair_coeff 438 438 lj/cut/coul/long 0.28 2.93
    pair_coeff 439 439 lj/cut/coul/long 0.066 3.5
    pair_coeff 440 440 lj/cut/coul/long 0.066 3.5
    pair_coeff 441 441 lj/cut/coul/long 0.07 3.55
    pair_coeff 442 442 lj/cut/coul/long 0.07 3.55
    pair_coeff 443 443 lj/cut/coul/long 0.07 3.55
    pair_coeff 444 444 lj/cut/coul/long 0.17 3.25
    pair_coeff 445 445 lj/cut/coul/long 0.0 0.0
    pair_coeff 446 446 lj/cut/coul/long 0.066 3.5
    pair_coeff 447 447 lj/cut/coul/long 0.07 3.55
    pair_coeff 448 448 lj/cut/coul/long 0.07 3.55
    pair_coeff 449 449 lj/cut/coul/long 0.07 3.55
    pair_coeff 450 450 lj/cut/coul/long 0.07 3.55
    pair_coeff 451 451 lj/cut/coul/long 0.07 3.55
    pair_coeff 452 452 lj/cut/coul/long 0.17 3.25
    pair_coeff 453 453 lj/cut/coul/long 0.17 3.25
    pair_coeff 454 454 lj/cut/coul/long 0.0 0.0
    pair_coeff 455 455 lj/cut/coul/long 0.07 3.55
    pair_coeff 456 456 lj/cut/coul/long 0.066 3.5
    pair_coeff 457 457 lj/cut/coul/long 0.066 3.5
    pair_coeff 458 458 lj/cut/coul/long 0.076 3.55
    pair_coeff 459 459 lj/cut/coul/long 0.076 3.55
    pair_coeff 460 460 lj/cut/coul/long 0.07 3.55
    pair_coeff 461 461 lj/cut/coul/long 0.17 3.25
    pair_coeff 462 462 lj/cut/coul/long 0.07 3.55
    pair_coeff 463 463 lj/cut/coul/long 0.07 3.55
    pair_coeff 464 464 lj/cut/coul/long 0.07 3.55
    pair_coeff 465 465 lj/cut/coul/long 0.03 2.42
    pair_coeff 466 466 lj/cut/coul/long 0.03 2.42
    pair_coeff 467 467 lj/cut/coul/long 0.03 2.42
    pair_coeff 468 468 lj/cut/coul/long 0.17 3.25
    pair_coeff 469 469 lj/cut/coul/long 0.07 3.55
    pair_coeff 470 470 lj/cut/coul/long 0.03 2.42
    pair_coeff 471 471 lj/cut/coul/long 0.17 3.25
    pair_coeff 472 472 lj/cut/coul/long 0.07 3.55
    pair_coeff 473 473 lj/cut/coul/long 0.07 3.55
    pair_coeff 474 474 lj/cut/coul/long 0.07 3.55
    pair_coeff 475 475 lj/cut/coul/long 0.03 2.42
    pair_coeff 476 476 lj/cut/coul/long 0.03 2.42
    pair_coeff 477 477 lj/cut/coul/long 0.03 2.42
    pair_coeff 478 478 lj/cut/coul/long 0.17 3.25
    pair_coeff 479 479 lj/cut/coul/long 0.07 3.55
    pair_coeff 480 480 lj/cut/coul/long 0.07 3.55
    pair_coeff 481 481 lj/cut/coul/long 0.03 2.42
    pair_coeff 482 482 lj/cut/coul/long 0.03 2.42
    pair_coeff 483 483 lj/cut/coul/long 0.17 3.25
    pair_coeff 484 484 lj/cut/coul/long 0.07 3.55
    pair_coeff 485 485 lj/cut/coul/long 0.07 3.55
    pair_coeff 486 486 lj/cut/coul/long 0.0 0.0
    pair_coeff 487 487 lj/cut/coul/long 0.03 2.42
    pair_coeff 488 488 lj/cut/coul/long 0.03 2.42
    pair_coeff 489 489 lj/cut/coul/long 0.17 3.25
    pair_coeff 490 490 lj/cut/coul/long 0.17 3.25
    pair_coeff 491 491 lj/cut/coul/long 0.07 3.55
    pair_coeff 492 492 lj/cut/coul/long 0.07 3.55
    pair_coeff 493 493 lj/cut/coul/long 0.07 3.55
    pair_coeff 494 494 lj/cut/coul/long 0.0 0.0
    pair_coeff 495 495 lj/cut/coul/long 0.03 2.42
    pair_coeff 496 496 lj/cut/coul/long 0.03 2.42
    pair_coeff 497 497 lj/cut/coul/long 0.03 2.42
    pair_coeff 498 498 lj/cut/coul/long 0.17 3.25
    pair_coeff 499 499 lj/cut/coul/long 0.07 3.55
    pair_coeff 500 500 lj/cut/coul/long 0.17 3.25
    pair_coeff 501 501 lj/cut/coul/long 0.07 3.55
    pair_coeff 502 502 lj/cut/coul/long 0.07 3.55
    pair_coeff 503 503 lj/cut/coul/long 0.0 0.0
    pair_coeff 504 504 lj/cut/coul/long 0.03 2.42
    pair_coeff 505 505 lj/cut/coul/long 0.03 2.42
    pair_coeff 506 506 lj/cut/coul/long 0.03 2.42
    pair_coeff 507 507 lj/cut/coul/long 0.14 2.9
    pair_coeff 508 508 lj/cut/coul/long 0.07 3.55
    pair_coeff 509 509 lj/cut/coul/long 0.076 3.55
    pair_coeff 510 510 lj/cut/coul/long 0.03 2.42
    pair_coeff 511 511 lj/cut/coul/long 0.03 2.42
    pair_coeff 512 512 lj/cut/coul/long 0.14 2.9
    pair_coeff 513 513 lj/cut/coul/long 0.07 3.55
    pair_coeff 514 514 lj/cut/coul/long 0.17 3.25
    pair_coeff 515 515 lj/cut/coul/long 0.07 3.55
    pair_coeff 516 516 lj/cut/coul/long 0.07 3.55
    pair_coeff 517 517 lj/cut/coul/long 0.03 2.42
    pair_coeff 518 518 lj/cut/coul/long 0.03 2.42
    pair_coeff 519 519 lj/cut/coul/long 0.03 2.42
    pair_coeff 520 520 lj/cut/coul/long 0.14 2.9
    pair_coeff 521 521 lj/cut/coul/long 0.17 3.25
    pair_coeff 522 522 lj/cut/coul/long 0.07 3.55
    pair_coeff 523 523 lj/cut/coul/long 0.07 3.55
    pair_coeff 524 524 lj/cut/coul/long 0.07 3.55
    pair_coeff 525 525 lj/cut/coul/long 0.03 2.42
    pair_coeff 526 526 lj/cut/coul/long 0.03 2.42
    pair_coeff 527 527 lj/cut/coul/long 0.03 2.42
    pair_coeff 528 528 lj/cut/coul/long 0.17 3.25
    pair_coeff 529 529 lj/cut/coul/long 0.07 3.55
    pair_coeff 530 530 lj/cut/coul/long 0.07 3.55
    pair_coeff 531 531 lj/cut/coul/long 0.07 3.55
    pair_coeff 532 532 lj/cut/coul/long 0.07 3.55
    pair_coeff 533 533 lj/cut/coul/long 0.07 3.55
    pair_coeff 534 534 lj/cut/coul/long 0.07 3.55
    pair_coeff 535 535 lj/cut/coul/long 0.07 3.55
    pair_coeff 536 536 lj/cut/coul/long 0.07 3.55
    pair_coeff 537 537 lj/cut/coul/long 0.0 0.0
    pair_coeff 538 538 lj/cut/coul/long 0.03 2.42
    pair_coeff 539 539 lj/cut/coul/long 0.03 2.42
    pair_coeff 540 540 lj/cut/coul/long 0.03 2.42
    pair_coeff 541 541 lj/cut/coul/long 0.03 2.42
    pair_coeff 542 542 lj/cut/coul/long 0.03 2.42
    pair_coeff 543 543 lj/cut/coul/long 0.03 2.42
    pair_coeff 544 544 lj/cut/coul/long 0.17 3.25
    pair_coeff 545 545 lj/cut/coul/long 0.07 3.55
    pair_coeff 546 546 lj/cut/coul/long 0.07 3.55
    pair_coeff 547 547 lj/cut/coul/long 0.07 3.55
    pair_coeff 548 548 lj/cut/coul/long 0.07 3.55
    pair_coeff 549 549 lj/cut/coul/long 0.07 3.55
    pair_coeff 550 550 lj/cut/coul/long 0.07 3.55
    pair_coeff 551 551 lj/cut/coul/long 0.07 3.55
    pair_coeff 552 552 lj/cut/coul/long 0.07 3.55
    pair_coeff 553 553 lj/cut/coul/long 0.07 3.55
    pair_coeff 554 554 lj/cut/coul/long 0.03 2.42
    pair_coeff 555 555 lj/cut/coul/long 0.03 2.42
    pair_coeff 556 556 lj/cut/coul/long 0.03 2.42
    pair_coeff 557 557 lj/cut/coul/long 0.03 2.42
    pair_coeff 558 558 lj/cut/coul/long 0.03 2.42
    pair_coeff 559 559 lj/cut/coul/long 0.03 2.42
    pair_coeff 560 560 lj/cut/coul/long 0.03 2.42
    pair_coeff 561 561 lj/cut/coul/long 0.17 3.25
    pair_coeff 562 562 lj/cut/coul/long 0.07 3.55
    pair_coeff 563 563 lj/cut/coul/long 0.17 3.25
    pair_coeff 564 564 lj/cut/coul/long 0.07 3.55
    pair_coeff 565 565 lj/cut/coul/long 0.07 3.55
    pair_coeff 566 566 lj/cut/coul/long 0.07 3.55
    pair_coeff 567 567 lj/cut/coul/long 0.17 3.25
    pair_coeff 568 568 lj/cut/coul/long 0.07 3.55
    pair_coeff 569 569 lj/cut/coul/long 0.17 3.25
    pair_coeff 570 570 lj/cut/coul/long 0.03 2.42
    pair_coeff 571 571 lj/cut/coul/long 0.03 2.42
    pair_coeff 572 572 lj/cut/coul/long 0.03 2.42
    pair_coeff 573 573 lj/cut/coul/long 0.0 0.0
    pair_coeff 574 574 lj/cut/coul/long 0.25 3.55
    pair_coeff 575 575 lj/cut/coul/long 0.07 3.55
    pair_coeff 576 576 lj/cut/coul/long 0.17 3.25
    pair_coeff 577 577 lj/cut/coul/long 0.07 3.55
    pair_coeff 578 578 lj/cut/coul/long 0.07 3.55
    pair_coeff 579 579 lj/cut/coul/long 0.03 2.42
    pair_coeff 580 580 lj/cut/coul/long 0.03 2.42
    pair_coeff 581 581 lj/cut/coul/long 0.03 2.42
    pair_coeff 582 582 lj/cut/coul/long 0.17 3.25
    pair_coeff 583 583 lj/cut/coul/long 0.07 3.55
    pair_coeff 584 584 lj/cut/coul/long 0.03 2.42
    pair_coeff 585 585 lj/cut/coul/long 0.07 3.55
    pair_coeff 586 586 lj/cut/coul/long 0.066 3.5
    pair_coeff 587 587 lj/cut/coul/long 0.17 3.25
    pair_coeff 588 588 lj/cut/coul/long 0.07 3.55
    pair_coeff 589 589 lj/cut/coul/long 0.07 3.55
    pair_coeff 590 590 lj/cut/coul/long 0.07 3.55
    pair_coeff 591 591 lj/cut/coul/long 0.07 3.55
    pair_coeff 592 592 lj/cut/coul/long 0.07 3.55
    pair_coeff 593 593 lj/cut/coul/long 0.07 3.55
    pair_coeff 594 594 lj/cut/coul/long 0.03 2.42
    pair_coeff 595 595 lj/cut/coul/long 0.03 2.42
    pair_coeff 596 596 lj/cut/coul/long 0.03 2.42
    pair_coeff 597 597 lj/cut/coul/long 0.03 2.42
    pair_coeff 598 598 lj/cut/coul/long 0.17 3.25
    pair_coeff 599 599 lj/cut/coul/long 0.07 3.55
    pair_coeff 600 600 lj/cut/coul/long 0.17 3.25
    pair_coeff 601 601 lj/cut/coul/long 0.07 3.55
    pair_coeff 602 602 lj/cut/coul/long 0.07 3.55
    pair_coeff 603 603 lj/cut/coul/long 0.066 3.5
    pair_coeff 604 604 lj/cut/coul/long 0.03 2.42
    pair_coeff 605 605 lj/cut/coul/long 0.03 2.42
    pair_coeff 606 606 lj/cut/coul/long 0.03 2.42