# Pour granular particles into chute container, then induce flow
atom_style	sphere
boundary	fm fm fm
newton		off
comm_modify	vel yes
variable L equal 25

region		reg block -$L $L -$L $L -0.5 16 units box
create_box	1 reg

neighbor	0.2 bin
neigh_modify	delay 0

pair_style      gran/hooke/history 2000.0 NULL 50.0 NULL 0.5 0
pair_coeff	* *

variable gamma equal 3.0
variable h equal 3.0
variable fStar equal 0.3
variable g equal 1.0
variable A equal "v_gamma*v_h/(2*2*PI*PI*v_fStar*v_fStar)"
variable f equal "v_fStar*sqrt(v_g/v_h)"
variable period equal "1.0/v_f"

timestep	0.01

fix nve all nve/sphere
fix gravity all gravity 1.0 spherical 0.0 -180.0
fix zlower all wall/gran 2000.0 NULL 20.0 NULL 0.5 0 zplane 1.0 2000.0
fix xp all wall/gran 2000.0 NULL 50.0 NULL 0.5 0 xplane -$L $L
fix yp all wall/gran 2000.0 NULL 50.0 NULL 0.5 0 yplane -$L $L

region	slab block -$L $L -$L $L 10.0 15.0 units box
fix ins all pour 8000 1 300719 vol 0.13 50 region slab

#/speed 10

#/label Adding particles
run	1000
unfix zlower
fix zlower all wall/gran 2000.0 NULL 50.0 NULL 0.5 0 zplane 0.0 2000.0 wiggle z ${A} ${period}
#/label Starting to vibrate
run 1000
#/label Waiting for pattern
run 3000
#/label Do you see it? Wait some more
run 3000
#/label Better now! But perfect result requires even more time
run 80000
#/label You are the most patient person in the universe :)
