units		real
atom_style	atomic
atom_modify	map hash

lattice		fcc 17.0997595
region		box block 0 10 0 10 0 10

create_box	1 box
create_atoms	1 box
mass		1 39.948

velocity	all create 135 87287 loop geom

pair_style	lj/cut 8.5125
pair_coeff	1 1 0.2380 3.405 8.5125

fix		1 all nvt temp 135 135 100

thermo_style custom step temp
thermo 1000
run 100000

reset_timestep 0

compute msd all msd com yes
thermo_style custom step temp c_msd[4]
thermo 1000
run 1000000
