units		lj
atom_style	atomic
atom_modify	map hash

lattice		fcc 0.8442
region		system block 0 12 0 12 0 12
region		boxinside block 5 7 0 12 0 12
region		boxoutside block 5 7 0 12 0 12 side out

create_box	2 system
create_atoms	1 region boxinside
create_atoms    2 region boxoutside
mass		* 1.0

velocity	all create 3.44 87287 loop geom

pair_style	lj/cut 2.5
pair_coeff	* * 1.0 1.0 2.5

neighbor	0.3 bin
neigh_modify	delay 0 every 20 check no

fix		1 all nve
