# test Vashishta potential for quartz

units		metal
boundary	p p p

atom_style	atomic

read_data	singlewater.in

pair_style 	vashishta
pair_coeff	* *  H2O.vashishta O H
mass            1 15.9994
mass            2 1.00794

velocity	all create 300.0 277387 mom yes

neighbor	0.3 bin
neigh_modify	delay 10

fix nve all nve
timestep	0.0005
