#/atom 1 1.0 #ffffff
#/atom 2 1.0 #ff0000
log none

variable L equal 20.0
variable Lhalf equal 10.0
variable thickness equal 2.0

units lj
atom_style atomic
# atom_modify map hash
lattice fcc 0.5

variable left equal 0.5*$L-0.5*${thickness}
variable right equal 0.5*$L+0.5*${thickness}
region system block 0 $L 0 $L 0 ${Lhalf}
region boxinside block ${left} ${right} 0 $L 0 ${Lhalf}
region boxoutside block ${left} ${right} 0 $L 0 ${Lhalf} side out

create_box 2 system
create_atoms 1 region boxinside
create_atoms 2 region boxoutside
mass * 1.0

velocity all create 3.44 87287 loop geom

pair_style lj/cut 2.5
pair_coeff * * 1.0 1.0 2.5

fix 1 all nve
